5312
1500000
998460
997664
997664
997664
997664
997664
997664
997664
997664
995898
995898
995898
995898
995898
995898
995898
995898
995898
995898
995898
995898
995898
995898
995898
995898
995898
995898
993764
993764
992208
988749
988749
987726
987726
981407
981407
981407
981407
981407
981407
981407
981407
981407
981407
981407
981407
981407
979093
979093
979093
979093
979093
979093
979093
979093
979093
979093
979093
979093
979093
975785
975785
975785
975785
975785
975785
975785
975785
975785
975785
969582
969582
969582
969582
968362
968362
968362
968362
968362
968362
968362
968362
968362
968362
968362
964241
964241
964241
964241
964241
964241
964241
964241
964241
964241
964222
964222
964222
964222
964222
964222
960854
960854
960854
960854
960854
960854
957664
957664
957664
957664
957664
957664
957664
957664
957664
957664
957664
957664
957664
957664
957664
956711
956711
956711
956711
956711
956711
956711
956711
956711
956711
956711
956711
956711
956711
956711
956711
956711
956711
956711
956711
955496
955496
955496
955496
955496
955496
955496
955496
955496
955496
955496
952362
952362
952362
952362
952362
952362
952362
952362
952362
952362
952362
951687
951687
948437
948437
948437
948437
948437
948437
948437
948437
948437
948437
948437
948437
948437
948437
948437
948437
948437
948437
948437
947685
947685
947685
947685
947685
947611
947611
947611
947611
947611
947611
947611
947611
947611
947611
947611
942773
942773
942773
942773
942773
942773
942773
942773
942773
942773
942773
942773
942773
942773
942773
940211
940211
940211
940211
940211
939997
939997
939997
939997
939997
939997
939997
938991
938991
938991
938991
938991
938991
938991
938991
938991
938991
938991
938991
938991
938991
938991
938991
937922
937922
937922
937922
937922
937922
937922
937922
937922
937922
937922
937922
937922
937922
937922
937922
937922
937922
936867
936867
936867
936867
936867
936867
936867
936867
936867
936867
936867
933617
933617
933617
933617
928898
928898
928898
928898
928898
928898
928898
928898
928898
928898
928898
928898
925323
925323
925323
925323
925323
925323
925323
925323
925323
925323
925323
925323
925323
925323
925323
925323
924284
924284
924284
924284
924284
924284
924284
924284
924284
923471
923471
923471
923471
923471
923471
923471
923471
923471
923471
923471
923471
922685
922685
922685
922685
922685
922685
922685
922685
922685
921770
921770
921770
921770
921770
921770
921770
921493
921493
921493
921493
921493
921493
920546
920546
920546
916140
916140
916140
916140
916140
916140
916140
916140
916140
916140
916140
915557
915557
915557
915557
915557
915557
915557
915557
915557
915557
915557
915557
915557
915554
915554
915554
915554
915554
915554
915554
915554
915554
915554
915554
915554
915554
915554
915554
915554
915554
915554
915554
914919
914919
914919
914919
914919
914919
914919
914919
914919
914919
914919
914919
914919
914919
914919
914919
914919
914129
914129
914129
914129
914129
914129
914129
912772
912772
912772
912772
912772
912772
912772
912772
912772
912772
912772
912772
912772
912772
912772
912772
912772
912772
911884
911884
911884
911884
911884
911884
911884
911884
911884
911884
911884
911884
911884
911884
911884
911884
911884
911884
911884
911884
910751
910751
910751
910751
910751
910751
910751
910751
910751
910751
910751
910751
910751
910751
910751
910751
907904
907904
907904
907904
907904
904616
904616
904616
904431
904431
904431
904431
904431
904431
904431
904431
904431
904431
904431
904431
904431
904431
904431
904431
904431
904431
904431
902978
902978
902978
902978
902978
902978
902978
896544
896544
896544
896544
896544
896544
896544
896544
896544
896544
896544
896544
896544
896433
896433
896433
896433
896433
896433
896433
896433
896433
896433
896433
896433
896433
896433
896433
896433
895544
895544
895544
892170
892170
892170
892170
892170
892170
892170
892170
892170
892170
892170
892170
892170
892170
892170
892170
892170
892170
892170
892170
891258
891258
891258
891258
891258
891258
891258
891258
890835
890835
890835
890835
890835
890835
890835
890835
890835
889357
889357
889357
889357
887922
887922
887922
887922
887922
887922
887922
887922
887922
887922
887922
887922
887922
887922
887922
887922
887922
887922
884009
884009
884009
884009
884009
884009
884009
884009
884009
884009
884009
884009
884009
881905
881905
881905
881905
881905
881261
881261
867992
867992
867992
867992
862735
862735
862735
862735
862735
862735
862735
862735
862735
862735
862735
862735
862136
862136
862136
862136
862136
862136
862136
862136
862136
862136
862136
862136
862136
862136
862136
862136
862136
862136
862136
860598
860598
860598
860598
860598
860598
860598
860598
860598
860598
860598
860598
860032
860032
860032
859618
859618
859618
859618
859618
856996
856996
856996
856996
856996
856996
856996
856996
856996
856996
856996
856996
856996
856996
856996
856996
856996
856996
856996
852124
852124
852124
852124
852124
852124
852124
852124
852124
852124
852124
852124
852124
852124
852124
852124
850685
850685
850685
850685
850685
850685
850685
850685
849956
849956
849956
849956
849956
849956
849956
847937
847937
847937
847937
843780
843780
843780
843780
843780
843780
843780
843780
843780
843780
843780
843780
843780
843780
843780
843780
843780
843780
842653
842653
842653
842653
842653
842653
842653
842653
842653
842653
842653
837901
837901
837901
837901
837901
837901
837901
837901
837901
837901
837901
837901
837901
837901
837901
837901
837901
835797
835399
835399
835399
835399
835399
835399
835399
835399
835399
833861
833861
833861
833861
833861
833861
833861
833861
833861
833861
833489
833489
833489
833489
833489
833489
833489
833489
833489
833489
833489
833489
833489
833489
833489
833489
833489
833489
833489
833489
830666
830666
825948
825948
825948
825948
825948
825948
825948
825948
825948
825948
825948
825948
825948
825948
825948
825948
825948
825948
825948
825492
825492
825492
825492
825492
825492
825492
822487
822487
822487
822487
822487
822487
822487
822487
822487
822487
822487
822487
822487
822487
822487
822487
821003
821003
821003
821003
821003
821003
821003
821003
821003
821003
821003
821003
821003
821003
821003
821003
821003
821003
821003
820745
820745
820745
820560
820507
820507
820507
820507
820507
820507
820507
820507
820507
820507
820507
820507
820240
820240
820240
820240
820240
820240
820240
820240
820240
817237
817237
817237
817237
817237
817237
817237
817237
817237
817237
817237
817237
817074
817074
817074
817074
817074
817074
817074
817074
817074
817074
817074
814198
814198
807417
807417
807417
807417
807417
807417
807417
807417
807417
804252
804252
804252
804252
804252
804252
804252
804252
804252
804252
804252
804252
804252
804252
804252
804252
804252
803982
803982
803982
803982
803210
803210
803210
802276
802276
802276
802276
802276
802276
802276
802276
802026
802026
802026
802026
802026
802026
802026
802026
802026
802026
802026
802026
802026
802026
798930
798930
798930
798930
796910
796910
796910
796910
796910
796910
796910
796910
796910
796910
796910
796910
796910
793475
793475
793475
791140
791140
791140
791140
791140
791140
791140
791140
791140
791140
789582
789582
789582
789582
789582
789582
789582
789582
789582
789582
789582
789582
789582
789399
789399
789399
789399
789399
789399
789399
789399
789399
789399
789399
789399
789399
789399
789399
789399
789399
789399
785671
785671
785671
785671
785671
785671
785671
779112
779112
779112
779112
779112
779112
779112
779112
779112
779112
779112
779112
778557
772032
772032
772032
772032
772032
772032
772032
772032
772032
772032
772032
772032
772032
772032
772032
772032
772032
772032
772032
770541
770541
770541
770541
770541
770541
770541
770541
770541
770541
770541
770541
767326
767326
767326
767326
767326
767326
767326
767326
767326
767326
767326
767326
767326
767326
767326
767326
767326
767326
767326
767051
762986
762986
762986
762986
762986
762105
762105
762105
762105
762105
762105
762105
762105
762105
762105
762105
762105
762105
762105
762105
762105
762105
762105
762105
762105
759885
759885
759885
759885
759885
759885
759885
759885
755759
755759
755759
755759
755759
755759
755759
755759
755759
755759
755759
755759
755759
755759
753968
753968
753968
753968
753968
753968
753968
753968
753968
753968
752912
752912
752912
752912
752912
752912
752912
752912
752912
752912
752912
752912
752912
750494
750494
750494
750494
750494
750494
750494
750494
750494
749278
749278
749278
749278
749278
749278
749278
749278
749278
749278
749278
749278
749278
749278
749278
749278
745548
745548
745548
745548
745231
745231
745231
745231
745231
745231
745231
745231
745231
745231
745231
743674
743674
743674
743674
743674
743674
743674
743674
743674
743674
743674
743674
743674
743207
743207
743207
743207
743207
743207
743207
743207
743207
743207
743207
743207
743207
743207
743207
743207
743207
743207
743207
742804
742804
742804
742804
742804
742804
742804
742804
742804
742804
742804
742804
742804
742804
742804
742275
742275
742275
742275
742275
742275
742275
742275
742275
742275
742275
742275
740714
740714
740714
740714
740714
740714
740714
740714
740714
740714
740714
740714
740714
740714
740714
740714
740714
740230
740230
740230
740230
740230
740230
740230
740230
740230
739876
739876
739876
739876
739876
739876
739876
739876
739876
739876
739876
739876
739876
739876
739022
739022
739022
739022
738171
734377
734377
734377
734377
734377
734377
734377
734377
734253
734253
734253
734253
734253
734253
734253
734253
733128
733128
733128
733128
733128
733128
733128
733128
733128
733128
733128
733128
733128
733128
733059
733059
733059
733059
733059
733059
730010
730010
730010
730010
727533
727533
727533
727533
727533
727533
727533
727533
727533
727533
727533
727533
727533
727533
725929
725929
725929
725929
725929
725929
725929
725929
725929
725929
725929
725929
725929
724612
724612
724612
724612
724612
723115
723115
723115
723115
723115
723115
723115
723115
723115
723115
723115
722043
722043
722043
722043
722043
722043
722043
722043
722043
722043
722043
722043
722043
722043
720144
720144
720144
720144
720144
720144
720144
720144
720144
720144
720144
720144
720144
720144
720144
720144
720144
720144
718543
718543
718543
718543
718543
718543
716404
715269
715269
715269
715269
715269
715269
715269
715269
714456
714456
714456
714456
714456
714456
714456
711339
711339
711339
711339
711339
711339
711339
711339
711339
711339
711339
711339
711339
708949
708949
708949
708949
708949
708949
708949
708949
708949
708949
708949
708949
708949
708949
708949
708949
708949
708949
708949
707880
707880
707880
707880
707880
707880
707875
707875
707875
707875
707875
707875
707875
707875
707875
707875
707875
706987
706987
706987
706987
706987
706987
706987
706522
706522
706522
706522
706522
706522
706522
706522
706522
706522
706522
701965
701965
701965
701965
701188
701188
701188
701188
701188
701188
701188
701188
701188
701188
701188
699960
699960
699960
699960
699960
699960
699960
699960
699960
699960
699960
699960
699960
699960
699960
699960
699960
699960
699960
698741
698741
698741
698741
698741
698741
698741
698741
698741
698741
698741
698741
698741
694156
694156
694156
694156
694156
694156
694156
694156
694156
694156
694156
694156
694156
694156
694156
694156
694156
694156
694156
694156
693510
693510
693510
693510
693510
693510
693510
693510
693404
693404
693404
693404
693404
693404
693404
693404
691440
691440
691440
691440
691440
691440
691440
691440
691440
691440
691440
691440
691440
691440
691440
691440
691440
691440
691440
688257
688257
687372
687372
687372
687372
687372
687372
687372
687372
687372
687372
687372
687372
687372
687372
687372
687372
687372
687372
687372
687372
687065
687065
687065
687065
687065
687065
687065
687065
687065
687065
687065
687065
687065
687065
687065
687065
686742
686742
686742
686742
686742
686742
686742
686742
686742
686742
684092
684092
684092
684092
684092
684092
684092
684092
684092
684092
684092
684092
684092
684092
684092
680749
680749
680749
680749
680749
680749
680749
680749
680749
680749
680749
680749
678776
678776
678776
675197
674673
674673
674673
674673
674673
674673
673475
668243
668243
668243
668243
668243
668243
668243
668243
668243
668243
668243
668243
668243
668243
668243
668243
668243
668243
668243
667521
667521
667521
664544
664544
664544
664544
664544
664544
664544
664544
664544
664544
664544
664544
664544
664544
664544
664544
664544
664544
663710
663710
663710
663421
663421
663421
663421
663421
663421
663421
663421
663421
663421
663421
663421
662947
662947
662947
662947
662947
662947
662947
662947
662947
662947
662947
662947
662947
662947
662947
662947
662947
662925
662925
662925
662925
662925
662925
662925
662925
662925
662925
662925
662925
662925
662925
662925
662925
662925
662925
662925
661632
661632
661632
661632
661632
661354
661354
661354
661354
661354
661354
661354
661354
661354
661354
661354
661354
661354
661354
661354
661354
661294
661294
661294
661294
661294
661294
659076
659076
659076
659076
659076
659076
659076
659076
659076
659076
659076
659076
659076
659076
659076
659076
659076
659076
652388
652388
652388
652388
652388
652388
652388
652388
652388
652388
652388
652388
652388
652388
651537
651537
651537
651537
651537
651537
651537
651537
651537
651154
651154
651154
651154
651154
651154
651154
651154
651154
651154
651154
650397
650397
650397
650397
650397
650397
650397
650397
650397
650098
650098
650098
650098
649437
649437
649437
649437
649437
649437
649437
649437
649437
649096
649096
649096
649096
649096
649096
649096
649096
649096
648844
648844
648844
648844
648844
648844
648844
648844
646050
646050
646050
646050
646050
646050
646050
646050
645813
645813
645813
645813
645813
645813
645813
645299
645299
645299
645299
645299
645299
645299
645299
645299
645299
645299
645299
645299
645299
645299
645299
645299
645299
645299
645299
642360
642360
642360
642360
642360
642360
642360
642360
642360
642360
642360
642360
642360
642360
642360
642360
637878
637878
637878
637878
637878
637878
637878
637878
634856
634856
634856
634856
634856
634856
634856
634856
634856
634856
634856
634856
634856
634856
634856
634856
634856
633527
633527
633527
633527
633527
633527
633527
633527
633527
633527
633527
633527
633527
633527
633527
633527
632529
632529
632529
632529
632529
632529
632529
632529
632529
632529
632529
632529
632529
632529
631592
631592
631592
631592
631592
631592
631592
631592
631592
631592
631592
631592
631592
631592
631592
631592
631592
631361
631361
631361
631361
631361
630878
630878
630878
630878
630878
630878
630878
630878
630878
630878
630878
630878
630878
630878
630733
630733
630733
630733
630733
630733
630733
626742
626742
626742
626742
626742
626742
626742
626742
626742
626742
626742
626742
626742
625237
625237
625237
619931
619931
619931
619931
619931
619931
619931
619931
619931
619931
619931
619931
619931
619854
619854
619854
619854
619854
619854
619854
617391
617391
617391
617391
617391
617391
617391
617391
617391
617391
616549
616549
616549
616549
616549
616549
616549
616549
616549
616549
616549
616549
616549
616549
616549
616549
616549
616549
616549
615940
615940
615940
615940
615940
615940
615940
615940
615940
615940
615940
615940
615940
615940
615940
615940
615940
615940
615940
614078
614078
614078
614078
614078
614078
614078
614078
614078
614078
612939
612939
612939
612939
612939
612939
612939
612939
612939
612939
612939
612939
612939
612939
612939
612939
612939
612939
612598
612598
612598
612598
612598
612598
612598
612598
612598
612598
612598
612598
612598
612598
612598
612598
610633
610633
610633
610633
610633
610633
610633
610633
610633
610633
610633
610633
610633
610633
610633
608212
608212
608212
608212
608212
608212
608212
608212
608212
608212
607086
607086
607086
607086
607086
607086
607086
607086
607086
607086
607086
607058
607058
607058
607058
607058
607058
607058
607058
607058
607058
607058
607058
607058
607058
607058
604835
604835
597929
597929
597929
597929
597929
597929
597929
597929
597929
597929
597929
597929
597929
597929
597929
597929
597688
597688
597688
597688
597688
597688
597688
597688
597688
592676
592676
592676
592676
592676
592676
592676
592676
592676
592676
592676
592676
592362
592362
592362
592362
592362
592362
592362
592362
592362
592362
592362
592362
592362
592362
592362
592362
592362
592362
592362
592362
591403
591403
591403
591403
591403
591403
591403
589485
589387
589387
589387
589387
589387
589387
589387
589387
589387
589387
589387
589387
589387
589387
589387
589387
589387
589387
586508
586508
586508
586508
586508
586508
586508
586508
585985
585985
585985
585985
585985
585985
585985
585985
585985
585985
585985
585985
585985
585985
585985
585985
585985
585985
585985
585985
584616
584616
584616
584616
584616
584616
584616
584616
584616
584616
584616
584616
584616
584467
584467
584467
584467
584467
584467
584467
584467
584467
581591
581591
581591
581591
581591
581591
581591
581137
581137
581137
579519
579519
579519
579519
579519
579519
579519
579519
579519
579519
579519
579519
579519
579519
579519
579519
579519
578865
578865
578865
578865
578865
578865
578865
578865
578865
578865
578865
578865
578865
578865
578865
578865
578865
578553
578553
578553
578553
578553
569348
569348
569348
569348
569348
569348
569348
569348
569348
569348
569348
569348
569348
569348
568954
568954
568954
568954
568954
568954
568954
568954
568954
568954
568954
568954
568954
568954
568954
568954
568954
568156
568156
568056
568056
568056
568056
568056
568056
568056
568056
568056
568056
568056
568056
568056
568056
568056
568056
568056
568056
559656
559656
559656
559656
559656
559656
558705
558705
558705
558705
558705
558705
558705
558705
558705
558705
558705
558705
558705
558705
558705
557987
557987
557987
557987
548538
548538
548538
548538
548497
548497
548497
548497
548497
548497
548497
548497
548497
544985
544985
544985
544985
544985
544985
543787
543787
543787
543787
543787
543787
543787
543787
543787
543787
543787
543787
543787
543787
543787
543787
543787
543787
543787
541869
541869
541869
541869
541869
538249
538249
538249
538249
538249
538249
538249
535605
535605
535605
535605
535605
535605
535605
535605
535605
535605
531104
531104
531104
531104
531104
531104
531104
531104
531104
531104
531104
531104
531104
531104
531104
531104
531104
531104
531104
531104
529537
529537
529537
529537
529537
529537
529537
529537
529537
529537
529537
529537
529537
529537
529537
529537
529537
529537
529537
529537
528753
528753
528753
528753
528753
528753
528753
528753
528753
528753
528753
528753
528753
528074
528074
528074
528074
528074
528074
528074
528074
528074
528074
528074
528074
528074
528074
528074
528074
528074
526743
526743
526743
526743
521670
521670
521670
521670
517742
517742
517742
517742
517742
517742
517742
517742
517742
517742
517742
517742
517742
517742
516823
516823
516823
512808
512808
512808
512808
512808
512808
512808
512808
512808
512808
512808
512808
512808
512808
512808
512808
512808
512808
512808
512583
512583
512583
512583
512583
512583
512583
512583
512583
509935
509935
509935
509935
508008
508008
508008
508008
508008
508008
508008
508008
508008
508008
508008
508008
505182
505182
505182
505182
505182
505182
505182
505182
505182
505182
505182
505182
505182
505182
505182
505182
505182
505182
505182
504515
504515
504515
504515
504515
504347
504347
504347
504347
504347
504347
504347
504347
504347
504347
504346
504346
504346
502796
502796
502796
502796
502796
502796
502796
499623
499623
499623
499623
499623
499623
499623
499623
499623
499623
499623
499623
499623
499623
499623
499623
499623
499623
499623
498996
498996
498996
498996
498996
498996
498996
498996
498996
498996
498996
498996
498996
498996
498996
498996
498996
498996
498996
498249
498249
498249
498249
498249
498249
498249
498249
498249
498249
498249
498249
498249
498249
498249
498249
497121
497121
497121
497121
497121
497121
497121
497121
497121
497121
497121
497121
497121
497121
497121
497121
497121
497121
496786
496786
496786
496786
496786
496786
496786
496786
496786
496786
496786
496786
496786
496786
496786
496786
496786
495215
495215
495215
495215
495215
495215
495215
495215
495215
495215
495215
495215
495215
495215
495215
495215
495215
495215
495215
495215
488176
488176
488176
488176
488176
488176
487870
487870
487870
487870
487870
487870
487870
487870
487870
487870
487870
487870
487870
487870
487870
487870
487870
487870
487870
487870
485730
485730
485730
485730
485730
485730
485730
485730
485730
485730
485730
485730
485730
485730
485730
485730
485730
485730
485730
481940
479050
479050
479050
479050
477785
477785
477785
477785
477785
474174
474174
474174
474174
474174
474174
474174
474174
474174
474174
474174
474174
474174
474174
474174
471391
471391
471391
471391
471391
471391
471391
471391
471391
471391
471391
471391
471391
471391
470716
470716
470716
470716
470716
470716
470716
470680
470680
470680
470680
470680
470680
470680
470680
468218
468218
468218
468218
468218
468218
466679
466634
466634
466634
466634
466634
466634
466634
466634
466634
466634
466634
466634
466634
466551
465060
465060
465060
465060
464206
464206
464206
464206
464206
464206
464206
464206
464206
464206
464206
464206
464206
464206
464206
464206
464206
464206
464206
463821
463821
463821
463821
463821
463821
463821
463821
463821
463821
463821
463821
463821
463821
463821
463821
463821
463821
463821
463081
463081
463081
463081
463081
463081
463081
462770
462770
462770
462770
462770
458790
458790
458790
458790
458790
458790
458790
458790
458790
458790
458736
458736
458736
458736
458736
458736
458736
458736
458736
458736
458736
458736
458736
458736
458736
458736
457314
457314
455875
455875
455875
455875
455875
455875
455875
455875
455875
455875
454866
454866
454866
454866
452907
452907
452907
452907
452907
452907
452907
452907
452907
452907
452907
452907
452907
452907
452907
452907
452907
452192
452192
452192
449093
447778
447232
447232
447232
447232
447232
447232
447232
447232
447232
447232
447232
447232
447232
447232
447232
445855
445855
445855
445855
445855
445855
445855
445855
445855
445855
445855
445855
445855
445855
445855
441052
441052
441052
441052
441052
441052
441052
441052
441052
441052
441052
441052
441052
441052
441052
441052
441052
441052
441052
441052
437006
437006
437006
437006
437006
437006
437006
437006
437006
437006
437006
437006
435510
435510
435510
435510
435510
435510
435510
435510
435510
435510
435510
435510
435510
435510
435510
435101
435101
435101
435101
435101
435101
435101
435101
435101
435101
435101
426340
426091
426091
426091
426091
426091
426091
426091
426091
426091
426091
426091
426091
426091
426091
426091
426091
426091
424055
424055
424055
424055
424055
424055
424055
424055
421581
421581
421581
421581
421581
421581
421581
421581
421581
421581
421581
421581
421581
421581
421581
421581
421581
421581
421581
421368
421368
421368
421368
421368
421368
421368
421368
421368
421368
421368
421368
421368
421368
421368
421368
421368
421259
421259
421259
421259
421259
421259
421259
421259
421259
421259
421259
421259
421259
421259
419460
419460
419460
419460
419460
419460
419460
419460
419460
419460
419460
419460
419460
419460
419460
419460
419460
419460
419460
413703
413703
413703
413703
413703
413703
413703
413703
413703
412404
412404
412404
412404
412404
412404
412404
412404
412404
412404
412404
412404
412404
412404
412404
412404
410566
410566
408082
408082
408082
405904
405904
405904
405904
405904
405904
405904
405904
405904
405904
403369
403369
403369
403369
403369
403369
403369
403369
403369
403369
403369
400251
400251
400251
400251
400251
400251
400251
396737
396737
396737
396737
396737
396737
396737
396737
390727
390727
390727
390727
390727
390727
390727
390727
390727
390727
390727
390727
390727
390727
390727
390727
390727
390727
390727
390727
383945
383945
383945
383945
383945
383945
383945
383945
383945
383945
383945
383945
383945
383945
383945
383945
383453
383453
383453
383453
383386
383386
383386
383386
383386
383386
383386
383386
383386
383386
383386
383386
383386
382706
382706
382706
382706
382706
382706
382706
382706
382706
382706
382706
382706
382706
382706
382706
382706
382706
382706
381227
381227
381227
381227
381227
381227
381227
381227
381227
381227
381227
381227
381227
381227
379984
379984
379984
379984
378275
378275
378275
378275
378275
378275
378275
378275
378275
378200
378200
378200
378200
378200
378200
378200
378200
378200
376319
376319
376319
376319
376319
376319
376319
376319
376319
376319
376319
376319
376319
376319
376319
375677
375677
375677
372774
372774
372774
372774
372774
372774
372774
372774
372774
372774
372774
372774
372774
372774
372774
368080
368080
368080
368080
368080
368080
368080
368080
367285
367285
367285
367285
367285
367285
367285
367285
367285
367285
367285
367285
367285
362451
362451
362451
362451
362451
362451
362451
362451
362451
362451
362451
362451
362451
362451
362451
362451
362451
362451
361677
361677
361677
361677
361677
361677
360759
360759
360759
360759
360759
360759
360759
360759
359800
359800
359800
359800
359800
359800
359800
359628
359628
359628
358728
358728
358728
358728
358728
358728
358728
358728
358728
358728
358728
358728
358728
358728
358728
358728
358728
358728
356079
356079
356079
356079
356079
356079
356079
356079
356079
356079
356079
356079
356079
356079
355347
355347
355347
355347
355347
355347
349209
349209
349209
349209
349209
349209
349209
349209
349209
349209
349209
349209
349209
349209
348636
348636
348636
348636
348636
348636
348636
348636
348636
348636
348636
348636
348636
339062
339062
339062
339062
339062
339062
339062
339062
339062
339062
339062
339062
339062
339062
339062
339062
339062
339062
339062
339062
338644
338644
338644
338644
338644
338644
338644
338644
338644
338644
338644
338644
338644
337416
337416
337416
337416
337416
337416
337416
337264
337264
337264
337264
337264
337264
337264
337264
337264
337264
337264
337264
337264
337264
337264
337264
337264
337264
336308
336308
336308
336308
336308
336308
336308
336308
336308
336308
336308
336308
336308
336308
336308
336308
336308
329775
329775
329775
327609
327609
327609
327609
327609
327609
327609
327609
327609
327609
327609
327609
325266
325266
325266
325266
325266
325266
325266
325266
325266
325266
325266
325266
325266
325266
325266
325266
325266
325266
322914
322914
322914
322914
322914
322914
322914
322914
322914
322914
322914
322072
322072
322072
322072
322072
322072
322072
322072
322072
322072
322072
322072
322072
322072
322072
322072
322072
322072
322072
322072
318498
318498
318498
318498
318498
318498
318498
318498
318498
318498
318498
318498
318498
318498
318498
318498
318453
318453
318453
318453
318453
318453
318453
318453
318453
318453
318453
317847
317847
317847
317847
315851
315851
315851
315851
315851
315851
315851
315851
315851
315851
315851
315851
315851
315851
314787
314787
312684
312684
312684
312684
312684
312684
312684
312684
311984
311984
311984
311984
311984
311984
311984
311984
311984
311984
311984
311984
311984
311984
311984
311369
311369
311369
311369
311369
311369
311369
311369
311369
311369
311369
311369
311369
311369
311369
311369
311369
310514
310514
310514
310514
310514
310514
310514
310514
310514
310514
310514
310514
310514
310514
310514
309861
309861
309861
306721
306721
306721
306721
306721
306721
306721
306721
306721
306721
306721
306721
306721
306721
306721
306721
306721
301130
301130
301130
301130
301130
301130
301130
301130
301130
301130
301130
301130
300787
300787
300787
300787
300787
300787
300787
300787
300787
300787
298679
298679
296528
296528
296528
296528
296528
296528
296528
296528
296528
296528
296528
296528
296528
296528
288941
288941
288941
288941
288941
288941
288941
288941
288941
288941
288941
288941
288941
288799
288799
288799
288799
288799
288799
288799
288799
288799
288799
288799
288799
288799
288799
288799
288799
288799
288799
287211
287211
287211
287211
287211
287211
287211
287211
287211
287211
287211
287211
287211
287211
281243
281243
281243
281243
281243
281243
281243
281243
281243
281243
281243
281243
281243
281243
281243
281243
281243
280854
280854
280352
280352
280352
280352
280352
280352
280352
280352
280352
277096
277096
277096
277096
277096
277096
276278
276278
276278
276170
276170
276170
276170
276170
276170
276170
276170
276170
276170
276170
276170
276170
276170
275667
272558
272558
272558
272558
272558
272558
272558
268763
268763
268763
268763
268763
268763
268763
268763
268763
268763
268763
267720
267720
267720
267720
267720
267720
267720
267720
267720
267720
267720
263472
263472
262229
262229
262229
262229
262229
262229
262229
262229
262229
262229
262229
262229
262229
261702
261702
261335
261335
261335
261335
261335
261335
261335
261335
261335
261335
261335
261335
261335
261335
261335
261335
261335
261335
261335
261335
258746
258746
258746
258746
258746
258746
258746
258746
258746
258746
258746
258746
258746
258746
258746
258746
258746
258746
258746
255078
255078
255078
255078
255078
255078
255078
254461
254461
254461
254461
254461
254461
254461
254461
254461
254461
254461
254347
254347
254347
254347
254347
254347
254347
254347
254347
254347
254347
254347
254347
254347
254347
254347
254115
254115
254115
254115
254115
254115
254115
254115
254115
254115
254115
254115
254115
254115
253629
253629
253629
253629
253629
253629
253629
253629
253629
253629
253296
253296
253296
253296
253296
249522
249522
249522
249522
249522
249522
249353
249353
249353
249353
249353
249353
249353
249353
249353
249353
249353
249353
249353
249353
249353
249353
249353
248705
248705
248705
248705
248705
248705
248705
248705
248705
248705
248705
248705
248705
248705
248705
248705
248705
248705
248705
248705
247116
247116
247116
247116
247116
247116
247116
247116
247116
247116
247116
247116
247116
247116
246719
246719
246719
246719
246719
246719
246719
246719
246719
246719
246719
246719
246719
246719
246719
246719
246719
246719
246719
246719
243193
243193
243193
243193
243193
243193
239176
239176
239176
239176
239176
239176
237107
237107
237107
237107
237107
237107
237107
237107
237107
237107
237107
237107
237107
237107
237107
237107
237107
237107
237107
237107
234492
234492
234492
234492
234492
234492
234492
234492
234492
234492
232556
232556
232556
232556
232556
232556
232556
232556
232556
232556
232556
232556
232556
232556
232556
232556
230346
230346
230346
230346
230346
230346
230346
230346
230346
230346
230346
229389
229389
229389
229389
229389
229389
229389
229389
229389
229389
229389
229389
229163
229163
229163
229163
220896
220896
220896
220896
220896
220896
220896
220896
220896
220896
220896
220896
220896
220896
220546
220546
220237
220237
220237
220237
220237
220237
220237
220237
220237
220237
220019
220019
220019
220019
220019
220019
220019
220019
220019
220019
220019
220019
220019
220019
220019
220019
220019
220019
220019
218484
218484
218484
218484
218484
218484
218484
218484
218484
218484
218484
218484
218484
215894
215894
215894
215894
215894
215894
215894
215894
215894
215894
215894
215894
215894
215894
215894
215894
215418
214975
213900
213900
213900
213900
213900
213900
213900
213489
213489
213489
210860
210860
210860
210860
210860
204623
204623
204623
204623
204623
204623
204623
204623
203181
203181
203181
203181
203181
203181
202257
202257
202257
202257
202257
202257
202257
202257
202257
202257
202257
202257
202257
202257
202257
202257
202257
202257
201842
201842
201842
201842
201842
201842
201842
201842
201842
201842
201842
201842
201060
200700
200700
200700
200700
200700
200700
200700
200700
200700
200700
200700
200700
200700
200700
200700
200700
200700
200700
200700
200700
200556
200556
200556
200556
200556
200556
199008
199008
199008
196740
196740
196740
196740
196740
196740
196740
196740
196740
196740
196125
196125
196125
196125
196125
196125
196125
196125
196125
196125
196125
196125
196125
196125
196125
196125
196125
196125
196125
196125
195166
191596
191596
191596
191596
191596
191596
191596
191596
191596
191596
191596
191596
191596
191596
191596
191596
191596
191596
191596
190273
190273
190273
190273
190273
190273
190273
190273
190273
190273
190273
190273
190273
188750
188750
188750
188750
188750
188750
188750
188750
188750
188750
188750
188643
188643
188643
188643
188643
188643
188643
188643
188643
188643
188643
188643
188643
188643
188377
188377
188377
187981
187981
187981
185879
185879
185879
185879
185879
185879
185879
168634
168634
168634
168634
165380
165380
165380
165380
165380
165380
165380
165380
165380
165380
164729
164729
164729
164729
164729
164729
164729
164729
164729
163928
146216
146216
146216
146216
146216
146216
146216
146216
146216
146216
146216
146216
146216
146216
146216
146216
146216
146216
146216
146216
143944
143944
143944
143944
143944
143944
143944
143944
143944
143944
143944
143944
143944
143944
142542
142542
142542
142542
142542
142542
142542
142542
142542
142542
142542
142542
142542
142542
142542
142542
139602
139602
139602
139602
139602
139602
139602
139602
139602
139602
139602
139602
139602
139602
139602
132246
132246
132246
132246
132246
132246
132246
132246
132246
132246
132246
132246
132246
132246
132246
132246
132246
132246
132246
132246
126052
126052
126052
126052
126052
126052
126052
126052
126052
125221
125221
125221
125221
125221
125221
125221
125221
125221
125221
125221
125221
125221
125221
125221
125221
125221
125221
124104
124104
124104
124104
124104
124104
120691
120691
120691
120691
120691
120691
120691
120691
120691
120691
120691
120691
120691
120691
118347
116365
116365
116365
116365
115999
115999
115999
115999
115999
115999
115999
115999
115999
115999
115999
115999
115999
112236
112236
112236
112236
112236
112236
112236
112236
112236
112236
112236
112236
112236
112236
109562
109562
109562
109562
109562
109562
109562
109562
109562
109562
109562
109562
109562
109562
109562
109562
109562
109562
109562
109326
109326
109326
109326
109326
109326
109326
109326
109326
109326
109326
109326
109326
109326
109326
109326
109326
109326
99720
99720
99720
99720
99720
99720
99720
99720
99720
99720
99720
99720
99720
99225
99225
99225
99225
99225
99225
99225
99225
99225
99225
99225
99225
99225
99225
97658
97658
97658
97658
97658
97658
97658
97658
97658
97658
97658
97658
97658
97658
96535
96535
96535
96535
96535
96535
96535
96535
96535
96535
96535
96535
96535
96535
96535
96535
96535
96535
96492
96492
96492
96492
96492
96492
96492
96492
95543
95543
95543
95543
95543
95543
95543
95543
95543
95543
95543
95543
95543
95543
95543
95543
92430
92430
92430
92430
92430
92430
92430
92430
92430
92430
92430
92430
92430
92430
92430
92430
90415
90415
90415
90415
90415
90415
90415
90415
90415
90415
90415
90415
88669
88669
88669
88669
88669
88669
88669
88669
88669
88669
88281
86864
86864
86864
86864
86864
86864
86864
86864
86864
86864
86864
86864
86864
86864
81143
81143
81143
81143
81143
81143
81143
81143
81143
81143
81143
81143
81143
81143
80424
80424
79348
79348
79348
79348
79348
79348
76969
76969
76969
76969
75796
75796
75796
75796
75796
75796
75796
75796
75796
75796
75796
75796
75796
75796
75796
75796
75796
75796
75712
75712
75712
75712
75712
74317
74317
74317
74317
65254
65254
65254
65254
65254
65254
65254
65254
65254
65254
65254
65254
65254
65254
65254
60949
60949
60949
60949
60949
60949
60949
60949
60949
60949
60949
60949
60949
60949
60949
60949
60116
60116
60116
60116
60116
60116
60116
60116
60116
60116
59672
57815
57815
57815
57815
57815
57815
57815
54931
54931
54931
54931
54931
54931
54931
54931
54931
54931
54931
54593
54593
54593
54593
54593
54593
54593
54593
54593
54593
54593
54593
49602
49602
49602
49602
49602
49602
49602
49602
49602
49602
49602
49602
49602
49602
49602
46000
46000
46000
45623
45623
45623
45623
45623
45623
45623
45623
45623
45623
44860
44860
44860
44860
44860
44860
44860
44860
44860
44860
44860
42528
42528
42528
42528
42528
42528
42528
42528
42528
42528
42528
42528
42528
42528
42528
42528
42528
42528
42528
42528
38749
38749
38749
38749
38342
38342
38342
38342
38342
38342
38342
38342
38342
38342
38342
38342
37409
37409
37409
37409
37409
37409
37409
37409
36440
36440
36440
36440
36440
36440
36440
36440
36440
36440
36440
36440
36440
36440
36440
34407
34407
34407
34407
34407
34407
34407
34407
34407
34407
34407
32449
32449
32449
32449
32449
32449
32449
32449
32449
32449
32449
32449
31886
31886
31886
25040
25040
25040
25040
25040
25040
25040
25040
25040
25040
25040
25040
25040
25040
25040
25040
25040
25040
24409
24409
24409
22242
22242
22242
22242
22242
22242
22242
22242
21818
21818
21818
21818
21818
21190
21190
20577
20577
20577
20577
20577
20577
19462
19462
19462
19462
19462
19462
19462
19462
19462
19462
19462
18649
18649
18649
18649
18649
18649
16585
16585
16585
16296
16296
16296
16296
16296
16296
16296
16296
16296
16296
15828
15828
15828
15828
15828
15828
15828
15828
15828
15828
15828
15828
15828
15828
14875
14875
14875
14875
10058
10058
10058
10058
10058
10058
10058
10058
10058
10058
10058
10058
10058
10058
10058
10058
10058
10058
